peakDumbCharging = 37000; 
Machine = anon_enum(16); 
machineSpeed = [3700,3700,3700,3700,3700,3700,3700,3700,3700,3700,3700,3700,3700,3700,3700,3700]; 
machineLoad = [3700,3700,3700,3700,3700,3700,3700,3700,3700,3700,3700,3700,3700,3700,3700,3700]; 
Car = anon_enum(32); 
demandCar = [4640,14280,21120,10520,5960,7640,5040,6800,15320,13600,12760,5840,32840,11280,1760,11360,13080,7520,1720,20360,2680,640,19760,3760,800,30200,49560,7440,31840,2880,12480,3920]; 
arrivalCar = [66,65,63,63,62,61,61,60,60,60,60,59,59,58,57,57,54,53,50,46,45,42,39,37,36,35,29,29,26,26,23,22]; 
departureCar = [70,72,75,73,68,73,66,66,69,67,65,73,76,66,60,70,61,59,53,68,48,44,46,39,38,59,55,34,57,29,61,25]; 
